44 411
2 5 7 8 9 10 13 15 18 22 24 28 29 30 31 32 35 37 38
2 4 5 6 8 9 10 11 12 14 16 18 19 21 22 26 28 30 34 37 39 40 42
0 1 7 11 13 14 15 19 21 22 25 27 28 30 34 37 38 39 42 43
7 8 10 11 13 14 15 20 21 23 26 27 31 36 37 40
1 6 12 13 14 15 18 20 22 26 29 30 32 33 35 37 40 43
0 1 6 8 13 16 18 20 29 32 34 37 39 40 41 42
1 4 5 8 9 11 14 16 19 20 22 25 26 32 33 34 35 36 37 38
0 2 3 9 19 20 22 23 24 25 28 29 31 32 33 34 35 36 38 40
0 1 3 5 6 9 11 15 19 20 27 30 31 35 36 37 38 40 43
0 1 6 7 8 10 11 12 13 14 17 18 20 25 26 34 35 40 42
0 1 3 9 16 18 19 20 23 26 31 33 34 40 42 43
1 2 3 6 8 9 15 18 20 21 23 24 29 30 37 40 42
1 4 9 13 16 19 21 23 26 27 30 32 33 34 36 37 42
0 2 3 4 5 9 12 17 18 20 21 24 27 29 30 39 40 41
1 2 3 4 6 9 15 16 17 18 20 21 22 26 27 28 32 33 34 35 36 37 38 39 40 41 43
0 2 3 4 8 11 14 18 21 24 27 35 40 41 43
1 5 6 10 12 14 18 19 20 21 22 28 29 30 32 33 35 36 37 40
9 13 14 21 22 23 25 26 29 32 34 36 38 40
0 1 4 5 9 10 11 13 14 15 16 20 23 26 28 29 32 34 36 38 40 43
1 2 6 7 8 10 12 16 21 23 25 26 28 29 31 34 36 37 39 40
3 4 5 6 7 8 9 10 11 13 14 16 18 23 24 28 29 31 33 36
1 2 3 11 12 13 14 15 16 17 19 23 29 30 32 33 40 42 43
0 1 2 4 6 7 14 16 17 25 27 28 30 31 36
3 7 10 11 12 17 18 19 20 21 25 27 29 33 34 35 36 37 39 41 42
0 7 11 13 15 20 25 27 32 33 35 36 37 38 41 43
2 6 7 9 17 19 22 23 24 27 28 32 33 34 36 37 42
1 3 4 6 9 10 12 14 17 18 19 27 28 30 37 39 41 42
2 3 8 12 13 14 15 22 23 24 25 26 29 30 31 35 36 42
0 1 2 7 14 16 18 19 20 22 25 26 29 31 33 38 39 41 42
0 4 5 7 11 13 16 17 18 19 20 21 23 27 28 35 36 38 40 41 42 43
0 1 2 4 8 11 12 13 16 21 22 26 27 32 33 37 40
0 3 7 8 10 19 20 22 27 28 37 38 39 40 41 42
0 4 5 6 7 12 14 16 17 18 21 24 25 30 36 38 39 41 42
4 6 7 10 12 14 16 20 21 23 24 25 28 30 34 38 39 40 43
1 2 5 6 7 9 10 12 14 17 18 19 23 25 33 37 38 39
0 4 6 7 8 9 14 15 16 23 24 27 29 36 38 43
3 6 7 8 12 14 16 17 18 19 20 22 23 24 25 27 29 32 35 37 38 39 40 41
0 1 2 3 4 5 6 8 11 12 14 16 19 23 24 25 26 30 31 34 36 38 39 43
0 2 6 7 8 14 17 18 24 28 29 31 32 33 34 35 36 37 40
1 2 5 13 14 19 23 26 28 31 32 33 34 36 37 42 43
1 3 4 5 7 8 9 10 11 13 14 15 16 17 18 19 21 29 30 31 33 36 38 41 43
5 13 14 15 23 24 26 28 29 31 32 36 40 42
1 2 5 9 10 11 12 21 23 25 26 27 28 29 31 32 39 41
2 4 8 10 14 15 18 21 24 29 33 35 37 39 40
